0 3272
1 3201
2 3020
3 3020
4 3020
5 2927
6 2872
7 2657
8 2657
9 2657
10 2637
11 2592
12 2592
13 2519
14 2519
15 2519
16 2441
17 2441
18 2388
19 2388
20 2388
21 2388
22 2388
23 2351
24 2351
25 2351
26 2351
27 2351
28 2351
29 2351
30 2320
31 2320
32 2296
33 2296
34 2296
35 2294
36 2255
37 2255
38 2202
39 2202
40 2202
41 2202
42 2202
43 2202
44 2189
45 2167
46 2167
47 2147
48 2130
49 2130
50 2124
51 2117
52 2111
53 2101
54 2101
55 2101
56 2101
57 2100
58 2100
59 2090
60 2044
61 2044
62 2044
63 2038
64 2038
65 2038
66 2038
67 2038
68 2038
69 2038
70 2015
71 2015
72 2011
73 2011
74 2011
75 2011
76 2011
77 2011
78 2011
79 2011
80 1995
81 1995
82 1995
83 1986
84 1986
85 1986
86 1986
87 1986
88 1986
89 1986
90 1986
91 1986
92 1922
93 1922
94 1922
95 1922
96 1922
97 1922
98 1922
99 1922
100 1922
101 1922
102 1922
103 1922
104 1922
105 1922
106 1922
107 1922
108 1922
109 1922
110 1922
111 1922
112 1913
113 1913
114 1913
115 1913
116 1913
117 1913
118 1913
119 1913
120 1913
121 1913
122 1911
123 1911
124 1911
125 1911
126 1911
127 1911
128 1911
129 1911
130 1909
131 1909
132 1909
133 1909
134 1909
135 1907
136 1907
137 1907
138 1907
139 1907
140 1907
141 1905
142 1905
143 1905
144 1905
145 1905
146 1905
147 1905
148 1905
149 1901
150 1901
151 1901
152 1901
153 1885
154 1885
155 1885
156 1885
157 1885
158 1873
159 1873
160 1873
161 1873
162 1871
163 1871
164 1871
165 1871
166 1871
167 1871
168 1871
169 1860
170 1860
171 1860
172 1860
173 1860
174 1860
175 1860
176 1860
177 1860
178 1860
179 1860
180 1860
181 1860
182 1860
183 1860
184 1860
185 1860
186 1860
187 1860
188 1860
189 1860
190 1860
191 1860
192 1860
193 1852
194 1852
195 1852
196 1852
197 1852
198 1852
199 1852
200 1852
201 1852
202 1852
203 1852
204 1852
205 1852
206 1852
207 1852
208 1847
209 1847
210 1847
211 1847
212 1847
213 1847
214 1847
215 1847
216 1847
217 1847
218 1847
219 1847
220 1847
221 1847
222 1847
223 1844
224 1844
225 1844
226 1844
227 1844
228 1844
229 1844
230 1844
231 1844
232 1844
233 1844
234 1844
235 1844
236 1844
237 1844
238 1844
239 1844
240 1844
241 1844
242 1844
243 1844
244 1844
245 1844
246 1844
247 1844
248 1844
249 1844
250 1844
251 1844
252 1844
253 1844
254 1844
255 1844
256 1844
257 1844
258 1844
259 1844
260 1844
261 1844
262 1844
263 1844
264 1844
265 1844
266 1844
267 1844
268 1844
269 1844
270 1844
271 1844
272 1844
273 1844
274 1844
275 1844
276 1844
277 1844
278 1844
279 1844
280 1844
281 1844
282 1844
283 1844
284 1844
285 1844
286 1809
287 1809
288 1809
289 1809
290 1809
291 1809
292 1809
293 1809
294 1809
295 1809
296 1809
297 1809
298 1809
299 1809
300 1809
301 1809
302 1809
303 1809
304 1809
305 1809
306 1809
307 1809
308 1809
309 1809
310 1809
311 1805
312 1805
313 1805
314 1805
315 1805
316 1805
317 1805
318 1805
319 1805
320 1805
321 1805
322 1805
323 1805
324 1805
325 1805
326 1805
327 1805
328 1805
329 1805
330 1805
331 1805
332 1805
333 1805
334 1805
335 1805
336 1805
337 1805
338 1805
339 1805
340 1805
341 1805
342 1805
343 1805
344 1805
345 1805
346 1805
347 1805
348 1805
349 1805
350 1805
351 1805
352 1805
353 1805
354 1805
355 1805
356 1805
357 1805
358 1805
359 1805
360 1805
361 1805
362 1805
363 1805
364 1805
365 1805
366 1805
367 1805
368 1805
369 1805
370 1805
371 1805
372 1805
373 1805
374 1805
375 1805
376 1805
377 1805
378 1805
379 1805
380 1805
381 1805
382 1805
383 1805
384 1805
385 1805
386 1805
387 1805
388 1805
389 1805
390 1805
391 1805
392 1805
393 1805
394 1805
395 1805
396 1805
397 1805
398 1805
399 1805
400 1805
401 1805
402 1805
403 1805
404 1805
405 1805
406 1805
407 1805
408 1805
409 1805
410 1805
411 1805
412 1805
413 1805
414 1805
415 1805
416 1805
417 1805
418 1805
419 1805
420 1805
421 1805
422 1805
423 1805
424 1805
425 1805
426 1805
427 1805
428 1805
429 1805
430 1805
431 1805
432 1805
433 1805
434 1805
435 1805
436 1805
437 1805
438 1805
439 1805
440 1805
441 1805
442 1805
443 1805
444 1805
445 1805
446 1805
447 1805
448 1805
449 1805
450 1805
451 1805
452 1805
453 1805
454 1805
455 1805
456 1805
457 1805
458 1805
459 1805
460 1805
461 1805
462 1805
463 1805
464 1805
465 1805
466 1805
467 1805
468 1805
469 1805
470 1805
471 1805
472 1805
473 1805
474 1805
475 1805
476 1805
477 1805
478 1805
479 1805
480 1805
481 1805
482 1805
483 1805
484 1805
485 1805
486 1805
487 1805
488 1805
489 1805
490 1805
491 1805
492 1805
493 1805
494 1805
495 1805
496 1805
497 1805
498 1805
499 1805
500 1805
501 1805
502 1805
503 1805
504 1805
505 1805
506 1805
507 1805
508 1805
509 1805
510 1805
511 1805
512 1805
513 1805
514 1805
515 1805
516 1805
517 1805
518 1805
519 1805
520 1805
521 1805
522 1805
523 1805
524 1805
525 1805
526 1805
527 1805
528 1805
529 1805
530 1805
531 1805
532 1805
533 1805
534 1805
535 1805
536 1805
537 1805
538 1805
539 1805
540 1805
541 1805
542 1805
543 1805
544 1805
545 1805
546 1805
547 1805
548 1805
549 1805
550 1805
551 1805
552 1805
553 1805
554 1805
555 1805
556 1805
557 1805
558 1805
559 1805
560 1805
561 1805
562 1805
563 1805
564 1805
565 1805
566 1805
567 1805
568 1805
569 1805
570 1805
571 1805
572 1805
573 1805
574 1805
575 1805
576 1805
577 1805
578 1805
579 1805
580 1805
581 1805
582 1805
583 1805
584 1805
585 1805
586 1805
587 1805
588 1805
589 1805
590 1805
591 1805
592 1805
593 1805
594 1805
595 1805
596 1805
597 1805
598 1805
599 1805
600 1805
601 1805
602 1798
603 1798
604 1798
605 1798
606 1798
607 1798
608 1798
609 1798
610 1798
611 1798
612 1798
613 1798
614 1798
615 1798
616 1798
617 1798
618 1798
619 1798
620 1798
621 1798
622 1798
623 1798
624 1798
625 1798
626 1798
627 1798
628 1798
629 1798
630 1798
631 1798
632 1798
633 1798
634 1798
635 1798
636 1798
637 1798
638 1798
639 1798
640 1798
641 1798
642 1798
643 1798
644 1798
645 1798
646 1798
647 1798
648 1798
649 1798
650 1798
651 1798
652 1798
653 1798
654 1798
655 1798
656 1798
657 1798
658 1798
659 1798
660 1798
661 1798
662 1798
663 1798
664 1798
665 1798
666 1798
667 1798
668 1798
669 1798
670 1798
671 1798
672 1798
673 1798
674 1798
675 1798
676 1798
677 1798
678 1798
679 1798
680 1798
681 1798
682 1798
683 1798
684 1798
685 1798
686 1798
687 1798
688 1798
689 1798
690 1798
691 1798
692 1798
693 1798
694 1798
695 1798
696 1798
697 1798
698 1798
699 1798
700 1798
701 1798
702 1798
703 1798
704 1798
705 1798
706 1798
707 1798
708 1798
709 1798
710 1798
711 1798
712 1798
713 1798
714 1798
715 1798
716 1798
717 1798
718 1798
719 1798
720 1798
721 1798
722 1798
723 1798
724 1798
725 1798
726 1798
727 1798
728 1798
729 1798
730 1798
731 1798
732 1798
733 1798
734 1798
735 1798
736 1798
737 1798
738 1798
739 1798
740 1798
741 1798
742 1798
743 1798
744 1798
745 1798
746 1798
747 1798
748 1798
749 1798
750 1798
751 1798
752 1798
753 1798
754 1798
755 1798
756 1798
757 1798
758 1798
759 1798
760 1798
761 1798
762 1798
763 1798
764 1798
765 1798
766 1798
767 1798
768 1798
769 1798
770 1798
771 1798
772 1798
773 1798
774 1798
775 1798
776 1798
777 1798
778 1798
779 1798
780 1798
781 1798
782 1798
783 1798
784 1798
785 1798
786 1798
787 1798
788 1798
789 1798
790 1798
791 1798
792 1798
793 1798
794 1798
795 1798
796 1798
797 1798
798 1798
799 1798
800 1798
801 1798
802 1798
803 1798
804 1798
805 1798
806 1798
807 1798
808 1798
809 1798
810 1798
811 1798
812 1798
813 1798
814 1798
815 1798
816 1798
817 1798
818 1798
819 1798
820 1798
821 1798
822 1798
823 1798
824 1798
825 1798
826 1798
827 1798
828 1798
829 1798
830 1798
831 1798
832 1798
833 1798
834 1798
835 1798
836 1798
837 1798
838 1798
839 1798
840 1798
841 1798
842 1798
843 1798
844 1798
845 1798
846 1798
847 1798
848 1798
849 1798
850 1798
851 1798
852 1798
853 1798
854 1798
855 1798
856 1798
857 1798
858 1798
859 1798
860 1798
861 1798
862 1798
863 1798
864 1798
865 1798
866 1798
867 1798
868 1798
869 1798
870 1798
871 1798
872 1798
873 1798
874 1798
875 1798
876 1798
877 1798
878 1798
879 1798
880 1798
881 1798
882 1798
883 1798
884 1798
885 1798
886 1798
887 1798
888 1798
889 1798
890 1798
891 1798
892 1798
893 1798
894 1798
895 1798
896 1798
897 1798
898 1798
899 1798
900 1798
901 1798
902 1798
903 1798
904 1798
905 1798
906 1798
907 1798
908 1798
909 1798
910 1798
911 1798
912 1798
913 1798
914 1798
915 1798
916 1798
917 1798
918 1798
919 1798
920 1798
921 1798
922 1798
923 1798
924 1798
925 1798
926 1798
927 1798
928 1798
929 1798
930 1798
931 1798
932 1798
933 1798
934 1798
935 1798
936 1798
937 1798
938 1798
939 1798
940 1798
941 1798
942 1798
943 1798
944 1798
945 1798
946 1798
947 1798
948 1798
949 1798
950 1798
951 1798
952 1798
953 1798
954 1798
955 1798
956 1798
957 1798
958 1798
959 1798
960 1798
961 1798
962 1798
963 1798
964 1798
965 1798
966 1798
967 1798
968 1798
969 1798
970 1798
971 1798
972 1798
973 1798
974 1798
975 1798
976 1798
977 1798
978 1798
979 1798
980 1798
981 1798
982 1798
983 1798
984 1798
985 1798
986 1798
987 1798
988 1798
989 1798
990 1798
991 1798
992 1798
993 1798
994 1798
995 1798
996 1798
997 1798
998 1798
999 1798
Best: [[7,6,3,29,31,14],
       [8,26,33,22,10,23,13,24,34,15],
       [19,35,32,20,2,4,9,21],
       [5,18,27,11,12,16,37,30],
       [25,28,36,17]], fitness: 1798
